p ocr 975 975 2344
1 976
1 979
2 976
2 977
3 977
3 978
4 978
4 979
4 983
5 979
5 980
6 980
6 981
7 981
7 982
8 982
8 983
8 987
9 983
9 984
10 984
10 985
11 985
11 986
12 986
12 987
12 988
13 987
13 988
13 992
14 988
14 989
15 989
15 990
16 990
16 991
17 991
17 992
17 996
18 992
18 993
19 993
19 994
20 994
20 995
21 995
21 996
21 1000
22 996
22 997
23 997
23 998
24 998
24 999
25 999
25 1000
25 1001
26 1000
26 1001
26 1005
27 1001
27 1002
28 1002
28 1003
29 1003
29 1004
30 1004
30 1005
30 1006
31 1005
31 1006
31 1008
32 1006
32 1007
33 1007
33 1008
33 1010
34 1008
34 1009
35 1009
35 1010
35 1011
36 1010
36 1011
36 1014
37 1011
37 1012
38 1012
38 1013
39 1013
39 1014
39 1017
40 1014
40 1015
41 1015
41 1016
42 1016
42 1017
42 1020
43 1017
43 1018
44 1018
44 1019
45 1019
45 1020
45 1023
46 1020
46 1021
47 1021
47 1022
48 1022
48 1023
48 1026
49 1023
49 1024
50 1024
50 1025
51 1025
51 1026
51 1029
52 1026
52 1027
53 1027
53 1028
54 1028
54 1029
54 1033
55 1029
55 1030
56 1030
56 1031
57 1031
57 1032
58 1032
58 1033
58 1034
59 1033
59 1034
59 1037
60 1034
60 1035
61 1035
61 1036
62 1036
62 1037
62 1038
63 1037
63 1038
63 1039
64 1038
64 1039
64 1040
65 1039
65 1040
65 1041
66 1040
66 1041
66 1044
67 1041
67 1042
68 1042
68 1043
69 1043
69 1044
69 1048
70 1044
70 1045
71 1045
71 1046
72 1046
72 1047
73 1047
73 1048
73 1052
74 1048
74 1049
75 1049
75 1050
76 1050
76 1051
77 1051
77 1052
77 1053
78 1052
78 1053
78 1055
79 1053
79 1054
80 1054
80 1055
80 1057
81 1055
81 1056
82 1056
82 1057
82 1059
83 1057
83 1058
84 1058
84 1059
84 1061
85 1059
85 1060
86 1060
86 1061
86 1062
87 1061
87 1062
87 1063
88 1062
88 1063
88 1064
89 1063
89 1064
89 1068
90 1064
90 1065
91 1065
91 1066
92 1066
92 1067
93 1067
93 1068
93 1071
94 1068
94 1069
95 1069
95 1070
96 1070
96 1071
96 1075
97 1071
97 1072
98 1072
98 1073
99 1073
99 1074
100 1074
100 1075
100 1078
101 1075
101 1076
102 1076
102 1077
103 1077
103 1078
103 1081
104 1078
104 1079
105 1079
105 1080
106 1080
106 1081
106 1085
107 1081
107 1082
108 1082
108 1083
109 1083
109 1084
110 1084
110 1085
110 1088
111 1085
111 1086
112 1086
112 1087
113 1087
113 1088
113 1089
114 1088
114 1089
114 1090
115 1089
115 1090
115 1091
116 1090
116 1091
116 1092
117 1091
117 1092
117 1093
118 1092
118 1093
118 1096
119 1093
119 1094
120 1094
120 1095
121 1095
121 1096
121 1098
122 1096
122 1097
123 1097
123 1098
123 1099
124 1098
124 1099
124 1101
125 1099
125 1100
126 1100
126 1101
126 1104
127 1101
127 1102
128 1102
128 1103
129 1103
129 1104
129 1105
130 1104
130 1105
130 1106
131 1105
131 1106
131 1107
132 1106
132 1107
132 1110
133 1107
133 1108
134 1108
134 1109
135 1109
135 1110
135 1112
136 1110
136 1111
137 1111
137 1112
137 1113
138 1112
138 1113
138 1116
139 1113
139 1114
140 1114
140 1115
141 1115
141 1116
141 1118
142 1116
142 1117
143 1117
143 1118
143 1121
144 1118
144 1119
145 1119
145 1120
146 1120
146 1121
146 1123
147 1121
147 1122
148 1122
148 1123
148 1127
149 1123
149 1124
150 1124
150 1125
151 1125
151 1126
152 1126
152 1127
152 1131
153 1127
153 1128
154 1128
154 1129
155 1129
155 1130
156 1130
156 1131
156 1132
157 1131
157 1132
157 1136
158 1132
158 1133
159 1133
159 1134
160 1134
160 1135
161 1135
161 1136
161 1137
162 1136
162 1137
162 1141
163 1137
163 1138
164 1138
164 1139
165 1139
165 1140
166 1140
166 1141
166 1145
167 1141
167 1142
168 1142
168 1143
169 1143
169 1144
170 1144
170 1145
170 1148
171 1145
171 1146
172 1146
172 1147
173 1147
173 1148
173 1149
174 1148
174 1149
174 1151
175 1149
175 1150
176 1150
176 1151
176 1154
177 1151
177 1152
178 1152
178 1153
179 1153
179 1154
179 1157
180 1154
180 1155
181 1155
181 1156
182 1156
182 1157
182 1160
183 1157
183 1158
184 1158
184 1159
185 1159
185 1160
185 1164
186 1160
186 1161
187 1161
187 1162
188 1162
188 1163
189 1163
189 1164
189 1166
190 1164
190 1165
191 1165
191 1166
191 1168
192 1166
192 1167
193 1167
193 1168
193 1172
194 1168
194 1169
195 1169
195 1170
196 1170
196 1171
197 1171
197 1172
197 1174
198 1172
198 1173
199 1173
199 1174
199 1176
200 1174
200 1175
201 1175
201 1176
201 1177
202 1176
202 1177
202 1181
203 1177
203 1178
204 1178
204 1179
205 1179
205 1180
206 1180
206 1181
206 1184
207 1181
207 1182
208 1182
208 1183
209 1183
209 1184
209 1187
210 1184
210 1185
211 1185
211 1186
212 1186
212 1187
212 1188
213 1187
213 1188
213 1190
214 1188
214 1189
215 1189
215 1190
215 1193
216 1190
216 1191
217 1191
217 1192
218 1192
218 1193
218 1197
219 1193
219 1194
220 1194
220 1195
221 1195
221 1196
222 1196
222 1197
222 1198
223 1197
223 1198
223 1202
224 1198
224 1199
225 1199
225 1200
226 1200
226 1201
227 1201
227 1202
227 1203
228 1202
228 1203
228 1204
229 1203
229 1204
229 1205
230 1204
230 1205
230 1208
231 1205
231 1206
232 1206
232 1207
233 1207
233 1208
233 1209
234 1208
234 1209
234 1210
235 1209
235 1210
235 1214
236 1210
236 1211
237 1211
237 1212
238 1212
238 1213
239 1213
239 1214
239 1215
240 1214
240 1215
240 1217
241 1215
241 1216
242 1216
242 1217
242 1219
243 1217
243 1218
244 1218
244 1219
244 1222
245 1219
245 1220
246 1220
246 1221
247 1221
247 1222
247 1224
248 1222
248 1223
249 1223
249 1224
249 1227
250 1224
250 1225
251 1225
251 1226
252 1226
252 1227
252 1229
253 1227
253 1228
254 1228
254 1229
254 1232
255 1229
255 1230
256 1230
256 1231
257 1231
257 1232
257 1233
258 1232
258 1233
258 1234
259 1233
259 1234
259 1235
260 1234
260 1235
260 1239
261 1235
261 1236
262 1236
262 1237
263 1237
263 1238
264 1238
264 1239
264 1240
265 1239
265 1240
265 1243
266 1240
266 1241
267 1241
267 1242
268 1242
268 1243
268 1246
269 1243
269 1244
270 1244
270 1245
271 1245
271 1246
271 1247
272 1246
272 1247
272 1248
273 1247
273 1248
273 1252
274 1248
274 1249
275 1249
275 1250
276 1250
276 1251
277 1251
277 1252
277 1253
278 1252
278 1253
278 1256
279 1253
279 1254
280 1254
280 1255
281 1255
281 1256
281 1259
282 1256
282 1257
283 1257
283 1258
284 1258
284 1259
284 1261
285 1259
285 1260
286 1260
286 1261
286 1265
287 1261
287 1262
288 1262
288 1263
289 1263
289 1264
290 1264
290 1265
290 1266
291 1265
291 1266
291 1270
292 1266
292 1267
293 1267
293 1268
294 1268
294 1269
295 1269
295 1270
295 1271
296 1270
296 1271
296 1272
297 1271
297 1272
297 1274
298 1272
298 1273
299 1273
299 1274
299 1277
300 1274
300 1275
301 1275
301 1276
302 1276
302 1277
302 1280
303 1277
303 1278
304 1278
304 1279
305 1279
305 1280
305 1281
306 1280
306 1281
306 1285
307 1281
307 1282
308 1282
308 1283
309 1283
309 1284
310 1284
310 1285
310 1286
311 1285
311 1286
311 1290
312 1286
312 1287
313 1287
313 1288
314 1288
314 1289
315 1289
315 1290
315 1292
316 1290
316 1291
317 1291
317 1292
317 1294
318 1292
318 1293
319 1293
319 1294
319 1295
320 1294
320 1295
320 1299
321 1295
321 1296
322 1296
322 1297
323 1297
323 1298
324 1298
324 1299
324 1302
325 1299
325 1300
326 1300
326 1301
327 1301
327 1302
327 1306
328 1302
328 1303
329 1303
329 1304
330 1304
330 1305
331 1305
331 1306
331 1309
332 1306
332 1307
333 1307
333 1308
334 1308
334 1309
334 1310
335 1309
335 1310
335 1313
336 1310
336 1311
337 1311
337 1312
338 1312
338 1313
338 1317
339 1313
339 1314
340 1314
340 1315
341 1315
341 1316
342 1316
342 1317
342 1319
343 1317
343 1318
344 1318
344 1319
344 1321
345 1319
345 1320
346 1320
346 1321
346 1323
347 1321
347 1322
348 1322
348 1323
348 1327
349 1323
349 1324
350 1324
350 1325
351 1325
351 1326
352 1326
352 1327
352 1331
353 1327
353 1328
354 1328
354 1329
355 1329
355 1330
356 1330
356 1331
356 1335
357 1331
357 1332
358 1332
358 1333
359 1333
359 1334
360 1334
360 1335
360 1339
361 1335
361 1336
362 1336
362 1337
363 1337
363 1338
364 1338
364 1339
364 1340
365 1339
365 1340
365 1342
366 1340
366 1341
367 1341
367 1342
367 1344
368 1342
368 1343
369 1343
369 1344
369 1347
370 1344
370 1345
371 1345
371 1346
372 1346
372 1347
372 1350
373 1347
373 1348
374 1348
374 1349
375 1349
375 1350
375 1353
376 1350
376 1351
377 1351
377 1352
378 1352
378 1353
378 1355
379 1353
379 1354
380 1354
380 1355
380 1356
381 1355
381 1356
381 1360
382 1356
382 1357
383 1357
383 1358
384 1358
384 1359
385 1359
385 1360
385 1363
386 1360
386 1361
387 1361
387 1362
388 1362
388 1363
388 1364
389 1363
389 1364
389 1365
390 1364
390 1365
390 1368
391 1365
391 1366
392 1366
392 1367
393 1367
393 1368
393 1371
394 1368
394 1369
395 1369
395 1370
396 1370
396 1371
396 1374
397 1371
397 1372
398 1372
398 1373
399 1373
399 1374
399 1375
400 1374
400 1375
400 1378
401 1375
401 1376
402 1376
402 1377
403 1377
403 1378
403 1381
404 1378
404 1379
405 1379
405 1380
406 1380
406 1381
406 1383
407 1381
407 1382
408 1382
408 1383
408 1384
409 1383
409 1384
409 1386
410 1384
410 1385
411 1385
411 1386
411 1389
412 1386
412 1387
413 1387
413 1388
414 1388
414 1389
414 1393
415 1389
415 1390
416 1390
416 1391
417 1391
417 1392
418 1392
418 1393
418 1397
419 1393
419 1394
420 1394
420 1395
421 1395
421 1396
422 1396
422 1397
422 1401
423 1397
423 1398
424 1398
424 1399
425 1399
425 1400
426 1400
426 1401
426 1405
427 1401
427 1402
428 1402
428 1403
429 1403
429 1404
430 1404
430 1405
430 1406
431 1405
431 1406
431 1408
432 1406
432 1407
433 1407
433 1408
433 1412
434 1408
434 1409
435 1409
435 1410
436 1410
436 1411
437 1411
437 1412
437 1415
438 1412
438 1413
439 1413
439 1414
440 1414
440 1415
440 1417
441 1415
441 1416
442 1416
442 1417
442 1420
443 1417
443 1418
444 1418
444 1419
445 1419
445 1420
445 1421
446 1420
446 1421
446 1425
447 1421
447 1422
448 1422
448 1423
449 1423
449 1424
450 1424
450 1425
450 1427
451 1425
451 1426
452 1426
452 1427
452 1429
453 1427
453 1428
454 1428
454 1429
454 1430
455 1429
455 1430
455 1433
456 1430
456 1431
457 1431
457 1432
458 1432
458 1433
458 1437
459 1433
459 1434
460 1434
460 1435
461 1435
461 1436
462 1436
462 1437
462 1441
463 1437
463 1438
464 1438
464 1439
465 1439
465 1440
466 1440
466 1441
466 1443
467 1441
467 1442
468 1442
468 1443
468 1447
469 1443
469 1444
470 1444
470 1445
471 1445
471 1446
472 1446
472 1447
472 1450
473 1447
473 1448
474 1448
474 1449
475 1449
475 1450
475 1453
476 1450
476 1451
477 1451
477 1452
478 1452
478 1453
478 1455
479 1453
479 1454
480 1454
480 1455
480 1458
481 1455
481 1456
482 1456
482 1457
483 1457
483 1458
483 1462
484 1458
484 1459
485 1459
485 1460
486 1460
486 1461
487 1461
487 1462
487 1464
488 1462
488 1463
489 1463
489 1464
489 1468
490 1464
490 1465
491 1465
491 1466
492 1466
492 1467
493 1467
493 1468
493 1472
494 1468
494 1469
495 1469
495 1470
496 1470
496 1471
497 1471
497 1472
497 1475
498 1472
498 1473
499 1473
499 1474
500 1474
500 1475
500 1479
501 1475
501 1476
502 1476
502 1477
503 1477
503 1478
504 1478
504 1479
504 1480
505 1479
505 1480
505 1482
506 1480
506 1481
507 1481
507 1482
507 1484
508 1482
508 1483
509 1483
509 1484
509 1485
510 1484
510 1485
510 1487
511 1485
511 1486
512 1486
512 1487
512 1488
513 1487
513 1488
513 1491
514 1488
514 1489
515 1489
515 1490
516 1490
516 1491
516 1495
517 1491
517 1492
518 1492
518 1493
519 1493
519 1494
520 1494
520 1495
520 1497
521 1495
521 1496
522 1496
522 1497
522 1498
523 1497
523 1498
523 1499
524 1498
524 1499
524 1500
525 1499
525 1500
525 1503
526 1500
526 1501
527 1501
527 1502
528 1502
528 1503
528 1506
529 1503
529 1504
530 1504
530 1505
531 1505
531 1506
531 1509
532 1506
532 1507
533 1507
533 1508
534 1508
534 1509
534 1510
535 1509
535 1510
535 1511
536 1510
536 1511
536 1512
537 1511
537 1512
537 1516
538 1512
538 1513
539 1513
539 1514
540 1514
540 1515
541 1515
541 1516
541 1518
542 1516
542 1517
543 1517
543 1518
543 1520
544 1518
544 1519
545 1519
545 1520
545 1522
546 1520
546 1521
547 1521
547 1522
547 1523
548 1522
548 1523
548 1527
549 1523
549 1524
550 1524
550 1525
551 1525
551 1526
552 1526
552 1527
552 1530
553 1527
553 1528
554 1528
554 1529
555 1529
555 1530
555 1532
556 1530
556 1531
557 1531
557 1532
557 1536
558 1532
558 1533
559 1533
559 1534
560 1534
560 1535
561 1535
561 1536
561 1539
562 1536
562 1537
563 1537
563 1538
564 1538
564 1539
564 1542
565 1539
565 1540
566 1540
566 1541
567 1541
567 1542
567 1543
568 1542
568 1543
568 1544
569 1543
569 1544
569 1548
570 1544
570 1545
571 1545
571 1546
572 1546
572 1547
573 1547
573 1548
573 1549
574 1548
574 1549
574 1550
575 1549
575 1550
575 1552
576 1550
576 1551
577 1551
577 1552
577 1555
578 1552
578 1553
579 1553
579 1554
580 1554
580 1555
580 1558
581 1555
581 1556
582 1556
582 1557
583 1557
583 1558
583 1561
584 1558
584 1559
585 1559
585 1560
586 1560
586 1561
586 1562
587 1561
587 1562
587 1566
588 1562
588 1563
589 1563
589 1564
590 1564
590 1565
591 1565
591 1566
591 1570
592 1566
592 1567
593 1567
593 1568
594 1568
594 1569
595 1569
595 1570
595 1574
596 1570
596 1571
597 1571
597 1572
598 1572
598 1573
599 1573
599 1574
599 1575
600 1574
600 1575
600 1579
601 1575
601 1576
602 1576
602 1577
603 1577
603 1578
604 1578
604 1579
604 1580
605 1579
605 1580
605 1582
606 1580
606 1581
607 1581
607 1582
607 1583
608 1582
608 1583
608 1587
609 1583
609 1584
610 1584
610 1585
611 1585
611 1586
612 1586
612 1587
612 1588
613 1587
613 1588
613 1589
614 1588
614 1589
614 1590
615 1589
615 1590
615 1592
616 1590
616 1591
617 1591
617 1592
617 1594
618 1592
618 1593
619 1593
619 1594
619 1598
620 1594
620 1595
621 1595
621 1596
622 1596
622 1597
623 1597
623 1598
623 1601
624 1598
624 1599
625 1599
625 1600
626 1600
626 1601
626 1602
627 1601
627 1602
627 1603
628 1602
628 1603
628 1606
629 1603
629 1604
630 1604
630 1605
631 1605
631 1606
631 1608
632 1606
632 1607
633 1607
633 1608
633 1609
634 1608
634 1609
634 1613
635 1609
635 1610
636 1610
636 1611
637 1611
637 1612
638 1612
638 1613
638 1616
639 1613
639 1614
640 1614
640 1615
641 1615
641 1616
641 1620
642 1616
642 1617
643 1617
643 1618
644 1618
644 1619
645 1619
645 1620
645 1623
646 1620
646 1621
647 1621
647 1622
648 1622
648 1623
648 1627
649 1623
649 1624
650 1624
650 1625
651 1625
651 1626
652 1626
652 1627
652 1630
653 1627
653 1628
654 1628
654 1629
655 1629
655 1630
655 1631
656 1630
656 1631
656 1633
657 1631
657 1632
658 1632
658 1633
658 1634
659 1633
659 1634
659 1638
660 1634
660 1635
661 1635
661 1636
662 1636
662 1637
663 1637
663 1638
663 1639
664 1638
664 1639
664 1641
665 1639
665 1640
666 1640
666 1641
666 1643
667 1641
667 1642
668 1642
668 1643
668 1646
669 1643
669 1644
670 1644
670 1645
671 1645
671 1646
671 1648
672 1646
672 1647
673 1647
673 1648
673 1651
674 1648
674 1649
675 1649
675 1650
676 1650
676 1651
676 1654
677 1651
677 1652
678 1652
678 1653
679 1653
679 1654
679 1658
680 1654
680 1655
681 1655
681 1656
682 1656
682 1657
683 1657
683 1658
683 1661
684 1658
684 1659
685 1659
685 1660
686 1660
686 1661
686 1663
687 1661
687 1662
688 1662
688 1663
688 1664
689 1663
689 1664
689 1668
690 1664
690 1665
691 1665
691 1666
692 1666
692 1667
693 1667
693 1668
693 1670
694 1668
694 1669
695 1669
695 1670
695 1673
696 1670
696 1671
697 1671
697 1672
698 1672
698 1673
698 1674
699 1673
699 1674
699 1676
700 1674
700 1675
701 1675
701 1676
701 1680
702 1676
702 1677
703 1677
703 1678
704 1678
704 1679
705 1679
705 1680
705 1684
706 1680
706 1681
707 1681
707 1682
708 1682
708 1683
709 1683
709 1684
709 1686
710 1684
710 1685
711 1685
711 1686
711 1689
712 1686
712 1687
713 1687
713 1688
714 1688
714 1689
714 1692
715 1689
715 1690
716 1690
716 1691
717 1691
717 1692
717 1695
718 1692
718 1693
719 1693
719 1694
720 1694
720 1695
720 1696
721 1695
721 1696
721 1699
722 1696
722 1697
723 1697
723 1698
724 1698
724 1699
724 1700
725 1699
725 1700
725 1702
726 1700
726 1701
727 1701
727 1702
727 1706
728 1702
728 1703
729 1703
729 1704
730 1704
730 1705
731 1705
731 1706
731 1710
732 1706
732 1707
733 1707
733 1708
734 1708
734 1709
735 1709
735 1710
735 1713
736 1710
736 1711
737 1711
737 1712
738 1712
738 1713
738 1715
739 1713
739 1714
740 1714
740 1715
740 1719
741 1715
741 1716
742 1716
742 1717
743 1717
743 1718
744 1718
744 1719
744 1723
745 1719
745 1720
746 1720
746 1721
747 1721
747 1722
748 1722
748 1723
748 1724
749 1723
749 1724
749 1726
750 1724
750 1725
751 1725
751 1726
751 1729
752 1726
752 1727
753 1727
753 1728
754 1728
754 1729
754 1730
755 1729
755 1730
755 1734
756 1730
756 1731
757 1731
757 1732
758 1732
758 1733
759 1733
759 1734
759 1736
760 1734
760 1735
761 1735
761 1736
761 1738
762 1736
762 1737
763 1737
763 1738
763 1740
764 1738
764 1739
765 1739
765 1740
765 1742
766 1740
766 1741
767 1741
767 1742
767 1746
768 1742
768 1743
769 1743
769 1744
770 1744
770 1745
771 1745
771 1746
771 1750
772 1746
772 1747
773 1747
773 1748
774 1748
774 1749
775 1749
775 1750
775 1754
776 1750
776 1751
777 1751
777 1752
778 1752
778 1753
779 1753
779 1754
779 1758
780 1754
780 1755
781 1755
781 1756
782 1756
782 1757
783 1757
783 1758
783 1760
784 1758
784 1759
785 1759
785 1760
785 1762
786 1760
786 1761
787 1761
787 1762
787 1765
788 1762
788 1763
789 1763
789 1764
790 1764
790 1765
790 1769
791 1765
791 1766
792 1766
792 1767
793 1767
793 1768
794 1768
794 1769
794 1773
795 1769
795 1770
796 1770
796 1771
797 1771
797 1772
798 1772
798 1773
798 1776
799 1773
799 1774
800 1774
800 1775
801 1775
801 1776
801 1778
802 1776
802 1777
803 1777
803 1778
803 1781
804 1778
804 1779
805 1779
805 1780
806 1780
806 1781
806 1783
807 1781
807 1782
808 1782
808 1783
808 1784
809 1783
809 1784
809 1786
810 1784
810 1785
811 1785
811 1786
811 1787
812 1786
812 1787
812 1789
813 1787
813 1788
814 1788
814 1789
814 1791
815 1789
815 1790
816 1790
816 1791
816 1794
817 1791
817 1792
818 1792
818 1793
819 1793
819 1794
819 1797
820 1794
820 1795
821 1795
821 1796
822 1796
822 1797
822 1798
823 1797
823 1798
823 1802
824 1798
824 1799
825 1799
825 1800
826 1800
826 1801
827 1801
827 1802
827 1805
828 1802
828 1803
829 1803
829 1804
830 1804
830 1805
830 1808
831 1805
831 1806
832 1806
832 1807
833 1807
833 1808
833 1809
834 1808
834 1809
834 1812
835 1809
835 1810
836 1810
836 1811
837 1811
837 1812
837 1813
838 1812
838 1813
838 1816
839 1813
839 1814
840 1814
840 1815
841 1815
841 1816
841 1819
842 1816
842 1817
843 1817
843 1818
844 1818
844 1819
844 1822
845 1819
845 1820
846 1820
846 1821
847 1821
847 1822
847 1825
848 1822
848 1823
849 1823
849 1824
850 1824
850 1825
850 1829
851 1825
851 1826
852 1826
852 1827
853 1827
853 1828
854 1828
854 1829
854 1832
855 1829
855 1830
856 1830
856 1831
857 1831
857 1832
857 1834
858 1832
858 1833
859 1833
859 1834
859 1837
860 1834
860 1835
861 1835
861 1836
862 1836
862 1837
862 1839
863 1837
863 1838
864 1838
864 1839
864 1841
865 1839
865 1840
866 1840
866 1841
866 1843
867 1841
867 1842
868 1842
868 1843
868 1846
869 1843
869 1844
870 1844
870 1845
871 1845
871 1846
871 1849
872 1846
872 1847
873 1847
873 1848
874 1848
874 1849
874 1850
875 1849
875 1850
875 1851
876 1850
876 1851
876 1855
877 1851
877 1852
878 1852
878 1853
879 1853
879 1854
880 1854
880 1855
880 1859
881 1855
881 1856
882 1856
882 1857
883 1857
883 1858
884 1858
884 1859
884 1860
885 1859
885 1860
885 1863
886 1860
886 1861
887 1861
887 1862
888 1862
888 1863
888 1866
889 1863
889 1864
890 1864
890 1865
891 1865
891 1866
891 1868
892 1866
892 1867
893 1867
893 1868
893 1870
894 1868
894 1869
895 1869
895 1870
895 1873
896 1870
896 1871
897 1871
897 1872
898 1872
898 1873
898 1874
899 1873
899 1874
899 1878
900 1874
900 1875
901 1875
901 1876
902 1876
902 1877
903 1877
903 1878
903 1879
904 1878
904 1879
904 1883
905 1879
905 1880
906 1880
906 1881
907 1881
907 1882
908 1882
908 1883
908 1887
909 1883
909 1884
910 1884
910 1885
911 1885
911 1886
912 1886
912 1887
912 1890
913 1887
913 1888
914 1888
914 1889
915 1889
915 1890
915 1891
916 1890
916 1891
916 1893
917 1891
917 1892
918 1892
918 1893
918 1895
919 1893
919 1894
920 1894
920 1895
920 1898
921 1895
921 1896
922 1896
922 1897
923 1897
923 1898
923 1899
924 1898
924 1899
924 1902
925 1899
925 1900
926 1900
926 1901
927 1901
927 1902
927 1903
928 1902
928 1903
928 1907
929 1903
929 1904
930 1904
930 1905
931 1905
931 1906
932 1906
932 1907
932 1908
933 1907
933 1908
933 1909
934 1908
934 1909
934 1910
935 1909
935 1910
935 1914
936 1910
936 1911
937 1911
937 1912
938 1912
938 1913
939 1913
939 1914
939 1917
940 1914
940 1915
941 1915
941 1916
942 1916
942 1917
942 1919
943 1917
943 1918
944 1918
944 1919
944 1921
945 1919
945 1920
946 1920
946 1921
946 1924
947 1921
947 1922
948 1922
948 1923
949 1923
949 1924
949 1927
950 1924
950 1925
951 1925
951 1926
952 1926
952 1927
952 1930
953 1927
953 1928
954 1928
954 1929
955 1929
955 1930
955 1934
956 1930
956 1931
957 1931
957 1932
958 1932
958 1933
959 1933
959 1934
959 1938
960 1934
960 1935
961 1935
961 1936
962 1936
962 1937
963 1937
963 1938
963 1940
964 1938
964 1939
965 1939
965 1940
965 1942
966 1940
966 1941
967 1941
967 1942
967 1946
968 1942
968 1943
969 1943
969 1944
970 1944
970 1945
971 1945
971 1946
971 1947
972 1946
972 1947
972 1950
973 1947
973 1948
974 1948
974 1949
975 1949
975 1950